\ LP format - for model browsing. Use MPS format to capture full model detail.
Maximize
  - 4.5 MAKE_PROD__bands_T__2_SCEN__BASE
   - 2 MAKE_PROD__bands_T__2_SCEN__HIGH
   - 4.5 MAKE_PROD__bands_T__3_SCEN__BASE
   - 2 MAKE_PROD__bands_T__3_SCEN__HIGH
   - 4.5 MAKE_PROD__bands_T__4_SCEN__BASE
   - 2 MAKE_PROD__bands_T__4_SCEN__HIGH
   - 4.95 MAKE_PROD__coils_T__2_SCEN__BASE
   - 2.2 MAKE_PROD__coils_T__2_SCEN__HIGH
   - 4.95 MAKE_PROD__coils_T__3_SCEN__BASE
   - 2.2 MAKE_PROD__coils_T__3_SCEN__HIGH
   - 4.95 MAKE_PROD__coils_T__4_SCEN__BASE
   - 2.2 MAKE_PROD__coils_T__4_SCEN__HIGH
   - 1.125 INV_PROD__bands_T__2_SCEN__BASE
   - 0.5 INV_PROD__bands_T__2_SCEN__HIGH
   - 1.125 INV_PROD__bands_T__3_SCEN__BASE
   - 0.5 INV_PROD__bands_T__3_SCEN__HIGH
   - 1.125 INV_PROD__bands_T__4_SCEN__BASE
   - 0.5 INV_PROD__bands_T__4_SCEN__HIGH
   - 1.35 INV_PROD__coils_T__2_SCEN__BASE
   - 0.6 INV_PROD__coils_T__2_SCEN__HIGH
   - 1.35 INV_PROD__coils_T__3_SCEN__BASE
   - 0.6 INV_PROD__coils_T__3_SCEN__HIGH
   - 1.35 INV_PROD__coils_T__4_SCEN__BASE
   - 0.6 INV_PROD__coils_T__4_SCEN__HIGH
   + 11.7 SELL_PROD__bands_T__2_SCEN__BASE
   + 5.4 SELL_PROD__bands_T__2_SCEN__HIGH
   + 12.15 SELL_PROD__bands_T__3_SCEN__BASE
   + 6.6 SELL_PROD__bands_T__3_SCEN__HIGH
   + 12.15 SELL_PROD__bands_T__4_SCEN__BASE
   + 7 SELL_PROD__bands_T__4_SCEN__HIGH
   + 13.5 SELL_PROD__coils_T__2_SCEN__BASE
   + 6.4 SELL_PROD__coils_T__2_SCEN__HIGH
   + 16.65 SELL_PROD__coils_T__3_SCEN__BASE
   + 6.6 SELL_PROD__coils_T__3_SCEN__HIGH
   + 17.55 SELL_PROD__coils_T__4_SCEN__BASE
   + 6.6 SELL_PROD__coils_T__4_SCEN__HIGH
Subject To
 >=0: MAKE_PROD__bands_T__2_SCEN__BASE >= 0
 >=0: MAKE_PROD__bands_T__2_SCEN__HIGH >= 0
 >=0: MAKE_PROD__bands_T__2_SCEN__LOW >= 0
 >=0: MAKE_PROD__bands_T__3_SCEN__BASE >= 0
 >=0: MAKE_PROD__bands_T__3_SCEN__HIGH >= 0
 >=0: MAKE_PROD__bands_T__3_SCEN__LOW >= 0
 >=0: MAKE_PROD__bands_T__4_SCEN__BASE >= 0
 >=0: MAKE_PROD__bands_T__4_SCEN__HIGH >= 0
 >=0: MAKE_PROD__bands_T__4_SCEN__LOW >= 0
 >=0: MAKE_PROD__coils_T__2_SCEN__BASE >= 0
 >=0: MAKE_PROD__coils_T__2_SCEN__HIGH >= 0
 >=0: MAKE_PROD__coils_T__2_SCEN__LOW >= 0
 >=0: MAKE_PROD__coils_T__3_SCEN__BASE >= 0
 >=0: MAKE_PROD__coils_T__3_SCEN__HIGH >= 0
 >=0: MAKE_PROD__coils_T__3_SCEN__LOW >= 0
 >=0: MAKE_PROD__coils_T__4_SCEN__BASE >= 0
 >=0: MAKE_PROD__coils_T__4_SCEN__HIGH >= 0
 >=0: MAKE_PROD__coils_T__4_SCEN__LOW >= 0
 >=0: INV_PROD__bands_T__2_SCEN__BASE >= 0
 >=0: INV_PROD__bands_T__2_SCEN__HIGH >= 0
 >=0: INV_PROD__bands_T__2_SCEN__LOW >= 0
 >=0: INV_PROD__bands_T__3_SCEN__BASE >= 0
 >=0: INV_PROD__bands_T__3_SCEN__HIGH >= 0
 >=0: INV_PROD__bands_T__3_SCEN__LOW >= 0
 >=0: INV_PROD__bands_T__4_SCEN__BASE >= 0
 >=0: INV_PROD__bands_T__4_SCEN__HIGH >= 0
 >=0: INV_PROD__bands_T__4_SCEN__LOW >= 0
 >=0: INV_PROD__coils_T__2_SCEN__BASE >= 0
 >=0: INV_PROD__coils_T__2_SCEN__HIGH >= 0
 >=0: INV_PROD__coils_T__2_SCEN__LOW >= 0
 >=0: INV_PROD__coils_T__3_SCEN__BASE >= 0
 >=0: INV_PROD__coils_T__3_SCEN__HIGH >= 0
 >=0: INV_PROD__coils_T__3_SCEN__LOW >= 0
 >=0: INV_PROD__coils_T__4_SCEN__BASE >= 0
 >=0: INV_PROD__coils_T__4_SCEN__HIGH >= 0
 >=0: INV_PROD__coils_T__4_SCEN__LOW >= 0
 >=0: SELL_PROD__bands_T__2_SCEN__BASE >= 0
 >=0: SELL_PROD__bands_T__2_SCEN__HIGH >= 0
 >=0: SELL_PROD__bands_T__2_SCEN__LOW >= 0
 >=0: SELL_PROD__bands_T__3_SCEN__BASE >= 0
 >=0: SELL_PROD__bands_T__3_SCEN__HIGH >= 0
 >=0: SELL_PROD__bands_T__3_SCEN__LOW >= 0
 >=0: SELL_PROD__bands_T__4_SCEN__BASE >= 0
 >=0: SELL_PROD__bands_T__4_SCEN__HIGH >= 0
 >=0: SELL_PROD__bands_T__4_SCEN__LOW >= 0
 >=0: SELL_PROD__coils_T__2_SCEN__BASE >= 0
 >=0: SELL_PROD__coils_T__2_SCEN__HIGH >= 0
 >=0: SELL_PROD__coils_T__2_SCEN__LOW >= 0
 >=0: SELL_PROD__coils_T__3_SCEN__BASE >= 0
 >=0: SELL_PROD__coils_T__3_SCEN__HIGH >= 0
 >=0: SELL_PROD__coils_T__3_SCEN__LOW >= 0
 >=0: SELL_PROD__coils_T__4_SCEN__BASE >= 0
 >=0: SELL_PROD__coils_T__4_SCEN__HIGH >= 0
 >=0: SELL_PROD__coils_T__4_SCEN__LOW >= 0
 <=Market: SELL_PROD__bands_T__2_SCEN__BASE <= 8500
 <=Market: SELL_PROD__bands_T__2_SCEN__HIGH <= 8500
 <=Market: SELL_PROD__bands_T__2_SCEN__LOW <= 8500
 <=Market: SELL_PROD__bands_T__3_SCEN__BASE <= 6500
 <=Market: SELL_PROD__bands_T__3_SCEN__HIGH <= 6500
 <=Market: SELL_PROD__bands_T__3_SCEN__LOW <= 6500
 <=Market: SELL_PROD__bands_T__4_SCEN__BASE <= 6500
 <=Market: SELL_PROD__bands_T__4_SCEN__HIGH <= 6500
 <=Market: SELL_PROD__bands_T__4_SCEN__LOW <= 6500
 <=Market: SELL_PROD__coils_T__2_SCEN__BASE <= 2500
 <=Market: SELL_PROD__coils_T__2_SCEN__HIGH <= 2500
 <=Market: SELL_PROD__coils_T__2_SCEN__LOW <= 2500
 <=Market: SELL_PROD__coils_T__3_SCEN__BASE <= 4500
 <=Market: SELL_PROD__coils_T__3_SCEN__HIGH <= 4500
 <=Market: SELL_PROD__coils_T__3_SCEN__LOW <= 4500
 <=Market: SELL_PROD__coils_T__4_SCEN__BASE <= 4200
 <=Market: SELL_PROD__coils_T__4_SCEN__HIGH <= 4200
 <=Market: SELL_PROD__coils_T__4_SCEN__LOW <= 4200
 TIME_2_BASE: 0.005 MAKE_PROD__bands_T__2_SCEN__BASE <= 40
 TIME_2_HIGH: 0.005 MAKE_PROD__bands_T__2_SCEN__BASE
   + 0.005 MAKE_PROD__bands_T__2_SCEN__HIGH <= 40
 TIME_2_LOW: 0.005 MAKE_PROD__bands_T__2_SCEN__BASE
   + 0.005 MAKE_PROD__bands_T__2_SCEN__HIGH
   + 0.005 MAKE_PROD__bands_T__2_SCEN__LOW <= 40
 TIME_2_BASE: 0.005 MAKE_PROD__bands_T__2_SCEN__BASE
   + 0.005 MAKE_PROD__bands_T__2_SCEN__HIGH
   + 0.005 MAKE_PROD__bands_T__2_SCEN__LOW
   + 0.00714285714285714 MAKE_PROD__coils_T__2_SCEN__BASE <= 40
 TIME_2_HIGH: 0.005 MAKE_PROD__bands_T__2_SCEN__BASE
   + 0.005 MAKE_PROD__bands_T__2_SCEN__HIGH
   + 0.005 MAKE_PROD__bands_T__2_SCEN__LOW
   + 0.00714285714285714 MAKE_PROD__coils_T__2_SCEN__BASE
   + 0.00714285714285714 MAKE_PROD__coils_T__2_SCEN__HIGH <= 40
 TIME_2_LOW: 0.005 MAKE_PROD__bands_T__2_SCEN__BASE
   + 0.005 MAKE_PROD__bands_T__2_SCEN__HIGH
   + 0.005 MAKE_PROD__bands_T__2_SCEN__LOW
   + 0.00714285714285714 MAKE_PROD__coils_T__2_SCEN__BASE
   + 0.00714285714285714 MAKE_PROD__coils_T__2_SCEN__HIGH
   + 0.00714285714285714 MAKE_PROD__coils_T__2_SCEN__LOW <= 40
 TIME_3_BASE: 0.005 MAKE_PROD__bands_T__2_SCEN__BASE
   + 0.005 MAKE_PROD__bands_T__2_SCEN__HIGH
   + 0.005 MAKE_PROD__bands_T__2_SCEN__LOW
   + 0.005 MAKE_PROD__bands_T__3_SCEN__BASE
   + 0.00714285714285714 MAKE_PROD__coils_T__2_SCEN__BASE
   + 0.00714285714285714 MAKE_PROD__coils_T__2_SCEN__HIGH
   + 0.00714285714285714 MAKE_PROD__coils_T__2_SCEN__LOW <= 32
 TIME_3_HIGH: 0.005 MAKE_PROD__bands_T__2_SCEN__BASE
   + 0.005 MAKE_PROD__bands_T__2_SCEN__HIGH
   + 0.005 MAKE_PROD__bands_T__2_SCEN__LOW
   + 0.005 MAKE_PROD__bands_T__3_SCEN__BASE
   + 0.005 MAKE_PROD__bands_T__3_SCEN__HIGH
   + 0.00714285714285714 MAKE_PROD__coils_T__2_SCEN__BASE
   + 0.00714285714285714 MAKE_PROD__coils_T__2_SCEN__HIGH
   + 0.00714285714285714 MAKE_PROD__coils_T__2_SCEN__LOW <= 32
 TIME_3_LOW: 0.005 MAKE_PROD__bands_T__2_SCEN__BASE
   + 0.005 MAKE_PROD__bands_T__2_SCEN__HIGH
   + 0.005 MAKE_PROD__bands_T__2_SCEN__LOW
   + 0.005 MAKE_PROD__bands_T__3_SCEN__BASE
   + 0.005 MAKE_PROD__bands_T__3_SCEN__HIGH
   + 0.005 MAKE_PROD__bands_T__3_SCEN__LOW
   + 0.00714285714285714 MAKE_PROD__coils_T__2_SCEN__BASE
   + 0.00714285714285714 MAKE_PROD__coils_T__2_SCEN__HIGH
   + 0.00714285714285714 MAKE_PROD__coils_T__2_SCEN__LOW <= 32
 TIME_3_BASE: 0.005 MAKE_PROD__bands_T__2_SCEN__BASE
   + 0.005 MAKE_PROD__bands_T__2_SCEN__HIGH
   + 0.005 MAKE_PROD__bands_T__2_SCEN__LOW
   + 0.005 MAKE_PROD__bands_T__3_SCEN__BASE
   + 0.005 MAKE_PROD__bands_T__3_SCEN__HIGH
   + 0.005 MAKE_PROD__bands_T__3_SCEN__LOW
   + 0.00714285714285714 MAKE_PROD__coils_T__2_SCEN__BASE
   + 0.00714285714285714 MAKE_PROD__coils_T__2_SCEN__HIGH
   + 0.00714285714285714 MAKE_PROD__coils_T__2_SCEN__LOW
   + 0.00714285714285714 MAKE_PROD__coils_T__3_SCEN__BASE <= 32
 TIME_3_HIGH: 0.005 MAKE_PROD__bands_T__2_SCEN__BASE
   + 0.005 MAKE_PROD__bands_T__2_SCEN__HIGH
   + 0.005 MAKE_PROD__bands_T__2_SCEN__LOW
   + 0.005 MAKE_PROD__bands_T__3_SCEN__BASE
   + 0.005 MAKE_PROD__bands_T__3_SCEN__HIGH
   + 0.005 MAKE_PROD__bands_T__3_SCEN__LOW
   + 0.00714285714285714 MAKE_PROD__coils_T__2_SCEN__BASE
   + 0.00714285714285714 MAKE_PROD__coils_T__2_SCEN__HIGH
   + 0.00714285714285714 MAKE_PROD__coils_T__2_SCEN__LOW
   + 0.00714285714285714 MAKE_PROD__coils_T__3_SCEN__BASE
   + 0.00714285714285714 MAKE_PROD__coils_T__3_SCEN__HIGH <= 32
 TIME_3_LOW: 0.005 MAKE_PROD__bands_T__2_SCEN__BASE
   + 0.005 MAKE_PROD__bands_T__2_SCEN__HIGH
   + 0.005 MAKE_PROD__bands_T__2_SCEN__LOW
   + 0.005 MAKE_PROD__bands_T__3_SCEN__BASE
   + 0.005 MAKE_PROD__bands_T__3_SCEN__HIGH
   + 0.005 MAKE_PROD__bands_T__3_SCEN__LOW
   + 0.00714285714285714 MAKE_PROD__coils_T__2_SCEN__BASE
   + 0.00714285714285714 MAKE_PROD__coils_T__2_SCEN__HIGH
   + 0.00714285714285714 MAKE_PROD__coils_T__2_SCEN__LOW
   + 0.00714285714285714 MAKE_PROD__coils_T__3_SCEN__BASE
   + 0.00714285714285714 MAKE_PROD__coils_T__3_SCEN__HIGH
   + 0.00714285714285714 MAKE_PROD__coils_T__3_SCEN__LOW <= 32
 TIME_4_BASE: 0.005 MAKE_PROD__bands_T__2_SCEN__BASE
   + 0.005 MAKE_PROD__bands_T__2_SCEN__HIGH
   + 0.005 MAKE_PROD__bands_T__2_SCEN__LOW
   + 0.005 MAKE_PROD__bands_T__3_SCEN__BASE
   + 0.005 MAKE_PROD__bands_T__3_SCEN__HIGH
   + 0.005 MAKE_PROD__bands_T__3_SCEN__LOW
   + 0.005 MAKE_PROD__bands_T__4_SCEN__BASE
   + 0.00714285714285714 MAKE_PROD__coils_T__2_SCEN__BASE
   + 0.00714285714285714 MAKE_PROD__coils_T__2_SCEN__HIGH
   + 0.00714285714285714 MAKE_PROD__coils_T__2_SCEN__LOW
   + 0.00714285714285714 MAKE_PROD__coils_T__3_SCEN__BASE
   + 0.00714285714285714 MAKE_PROD__coils_T__3_SCEN__HIGH
   + 0.00714285714285714 MAKE_PROD__coils_T__3_SCEN__LOW <= 40
 TIME_4_HIGH: 0.005 MAKE_PROD__bands_T__2_SCEN__BASE
   + 0.005 MAKE_PROD__bands_T__2_SCEN__HIGH
   + 0.005 MAKE_PROD__bands_T__2_SCEN__LOW
   + 0.005 MAKE_PROD__bands_T__3_SCEN__BASE
   + 0.005 MAKE_PROD__bands_T__3_SCEN__HIGH
   + 0.005 MAKE_PROD__bands_T__3_SCEN__LOW
   + 0.005 MAKE_PROD__bands_T__4_SCEN__BASE
   + 0.005 MAKE_PROD__bands_T__4_SCEN__HIGH
   + 0.00714285714285714 MAKE_PROD__coils_T__2_SCEN__BASE
   + 0.00714285714285714 MAKE_PROD__coils_T__2_SCEN__HIGH
   + 0.00714285714285714 MAKE_PROD__coils_T__2_SCEN__LOW
   + 0.00714285714285714 MAKE_PROD__coils_T__3_SCEN__BASE
   + 0.00714285714285714 MAKE_PROD__coils_T__3_SCEN__HIGH
   + 0.00714285714285714 MAKE_PROD__coils_T__3_SCEN__LOW <= 40
 TIME_4_LOW: 0.005 MAKE_PROD__bands_T__2_SCEN__BASE
   + 0.005 MAKE_PROD__bands_T__2_SCEN__HIGH
   + 0.005 MAKE_PROD__bands_T__2_SCEN__LOW
   + 0.005 MAKE_PROD__bands_T__3_SCEN__BASE
   + 0.005 MAKE_PROD__bands_T__3_SCEN__HIGH
   + 0.005 MAKE_PROD__bands_T__3_SCEN__LOW
   + 0.005 MAKE_PROD__bands_T__4_SCEN__BASE
   + 0.005 MAKE_PROD__bands_T__4_SCEN__HIGH
   + 0.005 MAKE_PROD__bands_T__4_SCEN__LOW
   + 0.00714285714285714 MAKE_PROD__coils_T__2_SCEN__BASE
   + 0.00714285714285714 MAKE_PROD__coils_T__2_SCEN__HIGH
   + 0.00714285714285714 MAKE_PROD__coils_T__2_SCEN__LOW
   + 0.00714285714285714 MAKE_PROD__coils_T__3_SCEN__BASE
   + 0.00714285714285714 MAKE_PROD__coils_T__3_SCEN__HIGH
   + 0.00714285714285714 MAKE_PROD__coils_T__3_SCEN__LOW <= 40
 TIME_4_BASE: 0.005 MAKE_PROD__bands_T__2_SCEN__BASE
   + 0.005 MAKE_PROD__bands_T__2_SCEN__HIGH
   + 0.005 MAKE_PROD__bands_T__2_SCEN__LOW
   + 0.005 MAKE_PROD__bands_T__3_SCEN__BASE
   + 0.005 MAKE_PROD__bands_T__3_SCEN__HIGH
   + 0.005 MAKE_PROD__bands_T__3_SCEN__LOW
   + 0.005 MAKE_PROD__bands_T__4_SCEN__BASE
   + 0.005 MAKE_PROD__bands_T__4_SCEN__HIGH
   + 0.005 MAKE_PROD__bands_T__4_SCEN__LOW
   + 0.00714285714285714 MAKE_PROD__coils_T__2_SCEN__BASE
   + 0.00714285714285714 MAKE_PROD__coils_T__2_SCEN__HIGH
   + 0.00714285714285714 MAKE_PROD__coils_T__2_SCEN__LOW
   + 0.00714285714285714 MAKE_PROD__coils_T__3_SCEN__BASE
   + 0.00714285714285714 MAKE_PROD__coils_T__3_SCEN__HIGH
   + 0.00714285714285714 MAKE_PROD__coils_T__3_SCEN__LOW
   + 0.00714285714285714 MAKE_PROD__coils_T__4_SCEN__BASE <= 40
 TIME_4_HIGH: 0.005 MAKE_PROD__bands_T__2_SCEN__BASE
   + 0.005 MAKE_PROD__bands_T__2_SCEN__HIGH
   + 0.005 MAKE_PROD__bands_T__2_SCEN__LOW
   + 0.005 MAKE_PROD__bands_T__3_SCEN__BASE
   + 0.005 MAKE_PROD__bands_T__3_SCEN__HIGH
   + 0.005 MAKE_PROD__bands_T__3_SCEN__LOW
   + 0.005 MAKE_PROD__bands_T__4_SCEN__BASE
   + 0.005 MAKE_PROD__bands_T__4_SCEN__HIGH
   + 0.005 MAKE_PROD__bands_T__4_SCEN__LOW
   + 0.00714285714285714 MAKE_PROD__coils_T__2_SCEN__BASE
   + 0.00714285714285714 MAKE_PROD__coils_T__2_SCEN__HIGH
   + 0.00714285714285714 MAKE_PROD__coils_T__2_SCEN__LOW
   + 0.00714285714285714 MAKE_PROD__coils_T__3_SCEN__BASE
   + 0.00714285714285714 MAKE_PROD__coils_T__3_SCEN__HIGH
   + 0.00714285714285714 MAKE_PROD__coils_T__3_SCEN__LOW
   + 0.00714285714285714 MAKE_PROD__coils_T__4_SCEN__BASE
   + 0.00714285714285714 MAKE_PROD__coils_T__4_SCEN__HIGH <= 40
 TIME_4_LOW: 0.005 MAKE_PROD__bands_T__2_SCEN__BASE
   + 0.005 MAKE_PROD__bands_T__2_SCEN__HIGH
   + 0.005 MAKE_PROD__bands_T__2_SCEN__LOW
   + 0.005 MAKE_PROD__bands_T__3_SCEN__BASE
   + 0.005 MAKE_PROD__bands_T__3_SCEN__HIGH
   + 0.005 MAKE_PROD__bands_T__3_SCEN__LOW
   + 0.005 MAKE_PROD__bands_T__4_SCEN__BASE
   + 0.005 MAKE_PROD__bands_T__4_SCEN__HIGH
   + 0.005 MAKE_PROD__bands_T__4_SCEN__LOW
   + 0.00714285714285714 MAKE_PROD__coils_T__2_SCEN__BASE
   + 0.00714285714285714 MAKE_PROD__coils_T__2_SCEN__HIGH
   + 0.00714285714285714 MAKE_PROD__coils_T__2_SCEN__LOW
   + 0.00714285714285714 MAKE_PROD__coils_T__3_SCEN__BASE
   + 0.00714285714285714 MAKE_PROD__coils_T__3_SCEN__HIGH
   + 0.00714285714285714 MAKE_PROD__coils_T__3_SCEN__LOW
   + 0.00714285714285714 MAKE_PROD__coils_T__4_SCEN__BASE
   + 0.00714285714285714 MAKE_PROD__coils_T__4_SCEN__HIGH
   + 0.00714285714285714 MAKE_PROD__coils_T__4_SCEN__LOW <= 40
 BALANCE2_bands_BASE: MAKE_PROD__bands_T__2_SCEN__BASE
   - INV_PROD__bands_T__2_SCEN__BASE - SELL_PROD__bands_T__2_SCEN__BASE
   = 0
 BALANCE2_bands_HIGH: MAKE_PROD__bands_T__2_SCEN__HIGH
   - INV_PROD__bands_T__2_SCEN__HIGH - SELL_PROD__bands_T__2_SCEN__HIGH
   = 0
 BALANCE2_bands_LOW: MAKE_PROD__bands_T__2_SCEN__LOW
   - INV_PROD__bands_T__2_SCEN__LOW - SELL_PROD__bands_T__2_SCEN__LOW = 0
 BALANCE2_coils_BASE: MAKE_PROD__coils_T__2_SCEN__BASE
   - INV_PROD__coils_T__2_SCEN__BASE - SELL_PROD__coils_T__2_SCEN__BASE
   = 0
 BALANCE2_coils_HIGH: MAKE_PROD__coils_T__2_SCEN__HIGH
   - INV_PROD__coils_T__2_SCEN__HIGH - SELL_PROD__coils_T__2_SCEN__HIGH
   = 0
 BALANCE2_coils_LOW: MAKE_PROD__coils_T__2_SCEN__LOW
   - INV_PROD__coils_T__2_SCEN__LOW - SELL_PROD__coils_T__2_SCEN__LOW = 0
 SUBJECT_TO_BALANCE: MAKE_PROD__bands_T__3_SCEN__BASE
   + INV_PROD__bands_T__2_SCEN__BASE - INV_PROD__bands_T__3_SCEN__BASE
   - SELL_PROD__bands_T__3_SCEN__BASE = 0
 SUBJECT_TO_BALANCE: MAKE_PROD__bands_T__3_SCEN__HIGH
   + INV_PROD__bands_T__2_SCEN__HIGH - INV_PROD__bands_T__3_SCEN__HIGH
   - SELL_PROD__bands_T__3_SCEN__HIGH = 0
 SUBJECT_TO_BALANCE: MAKE_PROD__bands_T__3_SCEN__LOW
   + INV_PROD__bands_T__2_SCEN__LOW - INV_PROD__bands_T__3_SCEN__LOW
   - SELL_PROD__bands_T__3_SCEN__LOW = 0
 SUBJECT_TO_BALANCE: MAKE_PROD__bands_T__4_SCEN__BASE
   + INV_PROD__bands_T__3_SCEN__BASE - INV_PROD__bands_T__4_SCEN__BASE
   - SELL_PROD__bands_T__4_SCEN__BASE = 0
 SUBJECT_TO_BALANCE: MAKE_PROD__bands_T__4_SCEN__HIGH
   + INV_PROD__bands_T__3_SCEN__HIGH - INV_PROD__bands_T__4_SCEN__HIGH
   - SELL_PROD__bands_T__4_SCEN__HIGH = 0
 SUBJECT_TO_BALANCE: MAKE_PROD__bands_T__4_SCEN__LOW
   + INV_PROD__bands_T__3_SCEN__LOW - INV_PROD__bands_T__4_SCEN__LOW
   - SELL_PROD__bands_T__4_SCEN__LOW = 0
 SUBJECT_TO_BALANCE: MAKE_PROD__coils_T__3_SCEN__BASE
   + INV_PROD__coils_T__2_SCEN__BASE - INV_PROD__coils_T__3_SCEN__BASE
   - SELL_PROD__coils_T__3_SCEN__BASE = 0
 SUBJECT_TO_BALANCE: MAKE_PROD__coils_T__3_SCEN__HIGH
   + INV_PROD__coils_T__2_SCEN__HIGH - INV_PROD__coils_T__3_SCEN__HIGH
   - SELL_PROD__coils_T__3_SCEN__HIGH = 0
 SUBJECT_TO_BALANCE: MAKE_PROD__coils_T__3_SCEN__LOW
   + INV_PROD__coils_T__2_SCEN__LOW - INV_PROD__coils_T__3_SCEN__LOW
   - SELL_PROD__coils_T__3_SCEN__LOW = 0
 SUBJECT_TO_BALANCE: MAKE_PROD__coils_T__4_SCEN__BASE
   + INV_PROD__coils_T__3_SCEN__BASE - INV_PROD__coils_T__4_SCEN__BASE
   - SELL_PROD__coils_T__4_SCEN__BASE = 0
 SUBJECT_TO_BALANCE: MAKE_PROD__coils_T__4_SCEN__HIGH
   + INV_PROD__coils_T__3_SCEN__HIGH - INV_PROD__coils_T__4_SCEN__HIGH
   - SELL_PROD__coils_T__4_SCEN__HIGH = 0
 SUBJECT_TO_BALANCE: MAKE_PROD__coils_T__4_SCEN__LOW
   + INV_PROD__coils_T__3_SCEN__LOW - INV_PROD__coils_T__4_SCEN__LOW
   - SELL_PROD__coils_T__4_SCEN__LOW = 0
Bounds
End
